%%%%%%%%%%%%%%%%%%%%%%%%%%%%%%%
%   02.1 
%%%%%%%%%%%%%%%%%%%%%%%%%%%%%%%
% max_t = 10;
% n = 5;
% M = 
% [| 1, 0, 1, 0, 1
%  | 1, 0, 1, 1, 0
%  | 0, 0, 0, 0, 1
%  | 1, 1, 1, 0, 1
%  | 1, 1, 0, 0, 1
%  |];

%%%%%%%%%%%%%%%%%%%%%%%%%%%%%%%
%   02.2
%%%%%%%%%%%%%%%%%%%%%%%%%%%%%%%
max_t = 7;
n = 6;
M = 
[| 0, 1, 1, 1, 0, 0
 | 1, 1, 1, 0, 1, 1
 | 0, 0, 0, 1, 0, 0
 | 1, 1, 0, 1, 0, 0
 | 1, 1, 1, 1, 0, 1
 | 1, 0, 0, 0, 0, 0
 |];
%%%%%%%%%%%%%%%%%%%%%%%%%%%%%%%
%   02.3 
%%%%%%%%%%%%%%%%%%%%%%%%%%%%%%%

%%%%%%%%%%%%%%%%%%%%%%%%%%%%%%%
%   02.4
%%%%%%%%%%%%%%%%%%%%%%%%%%%%%%%
